32      4       
12      10      10      12      
0       0       0       0       0       3       2       3       4       
10      0       0       0       4       3       5       7       8       
1       0       0       0       10      1       11      
9       4       0       0       0       2       6       16      
3       6       0       0       0       2       15      23      
1       3       0       0       0       2       10      12      
7       0       4       0       0       3       9       14      25      
1       0       0       0       2       1       13      
4       10      0       0       0       1       24      
10      0       0       0       2       1       22      
6       0       0       10      0       3       14      16      24      
2       0       0       0       6       2       13      21      
3       0       7       0       0       3       17      24      30      
1       0       0       3       0       1       18      
3       0       0       0       6       2       16      29      
1       0       0       10      0       1       19      
3       0       0       0       7       1       18      
10      0       0       0       9       2       20      31      
1       0       6       0       0       1       28      
3       5       0       0       0       1       26      
4       0       3       0       0       1       28      
2       8       0       0       0       1       28      
4       1       0       0       0       1       27      
2       3       0       0       0       2       26      31      
4       0       9       0       0       1       30      
6       0       0       0       7       1       29      
9       0       0       0       7       1       30      
2       0       0       0       5       1       31      
1       0       0       9       0       1       32      
1       0       0       9       0       1       32      
9       0       0       4       0       1       32      
0       0       0       0       0       0       